52642
0 32 7621
32 41 4806
41 1 1721
1 13 433
13 8 470
8 11 723
11 17 767
17 3 606
3 29 380
29 46 944
46 53 490
53 33 400
33 52 395
52 25 1236
25 54 397
54 27 487
27 5 404
5 2 384
2 42 1096
42 12 790
12 50 644
50 39 1041
39 6 1176
6 36 516
36 4 467
4 34 322
34 23 295
23 19 739
19 49 763
49 37 1180
37 7 367
7 43 383
43 31 675
31 40 361
40 18 1369
18 48 934
48 47 761
47 16 415
16 22 618
22 20 176
20 28 515
28 21 543
21 9 117
9 15 733
15 38 450
38 45 213
45 35 402
35 14 678
14 51 630
51 44 721
44 10 436
10 24 545
24 30 299
30 26 4459
26 0 4123
